(declare-fun Constructed_Argument_t () String)
(declare-fun CreateAsClass () Bool)
(declare-fun Constructed_Argument_elements_routes_0_t () String)
(declare-fun Constructed_Argument_elements_routes_0_Array_Length () Int)
(assert (= Constructed_Argument_t "object"))
(assert (not CreateAsClass))
(assert (= Constructed_Argument_elements_routes_0_t "array_number"))
(assert (>= Constructed_Argument_elements_routes_0_Array_Length 0))
(assert false)
(check-sat)
